c Result of efficient AIG-to-CNF conversion using package CNF
p cnf 708 2658
-2 3 376 377 386 0
-2 3 -376 -377 386 0
2 -386 0
2 -376 377 0
2 -3 0
2 376 -377 0
3 -62 370 0
3 4 -369 370 0
-3 -370 0
-3 62 369 0
-3 -4 62 0
-4 5 39 49 0
4 -5 0
4 -39 0
4 -49 0
-5 6 37 0
5 -6 0
5 -37 0
-6 -7 -36 0
-6 7 36 0
6 7 -36 0
6 -7 36 0
7 -647 -679 0
7 -679 -8 0
7 -647 -8 0
-7 647 8 0
-7 679 8 0
-7 647 679 0
8 -648 -680 0
8 -680 -9 0
8 -648 -9 0
-8 648 9 0
-8 680 9 0
-8 648 680 0
9 -649 -681 0
9 -681 -10 0
9 -649 -10 0
-9 649 10 0
-9 681 10 0
-9 649 681 0
10 -650 -682 0
10 -682 -11 0
10 -650 -11 0
-10 650 11 0
-10 682 11 0
-10 650 682 0
11 -651 -683 0
11 -683 -12 0
11 -651 -12 0
-11 651 12 0
-11 683 12 0
-11 651 683 0
12 -652 -684 0
12 -684 -13 0
12 -652 -13 0
-12 652 13 0
-12 684 13 0
-12 652 684 0
13 -653 -685 0
13 -685 -14 0
13 -653 -14 0
-13 653 14 0
-13 685 14 0
-13 653 685 0
14 -654 -686 0
14 -686 -15 0
14 -654 -15 0
-14 654 15 0
-14 686 15 0
-14 654 686 0
15 -655 -687 0
15 -687 -16 0
15 -655 -16 0
-15 655 16 0
-15 687 16 0
-15 655 687 0
16 -656 -688 0
16 -688 -17 0
16 -656 -17 0
-16 656 17 0
-16 688 17 0
-16 656 688 0
17 -657 -689 0
17 -689 -18 0
17 -657 -18 0
-17 657 18 0
-17 689 18 0
-17 657 689 0
18 -658 -690 0
18 -690 -19 0
18 -658 -19 0
-18 658 19 0
-18 690 19 0
-18 658 690 0
19 -659 -691 0
19 -691 -20 0
19 -659 -20 0
-19 659 20 0
-19 691 20 0
-19 659 691 0
20 -660 -692 0
20 -692 -21 0
20 -660 -21 0
-20 660 21 0
-20 692 21 0
-20 660 692 0
21 -661 -693 0
21 -693 -22 0
21 -661 -22 0
-21 661 22 0
-21 693 22 0
-21 661 693 0
22 -662 -694 0
22 -694 -23 0
22 -662 -23 0
-22 662 23 0
-22 694 23 0
-22 662 694 0
23 -663 -695 0
23 -695 -24 0
23 -663 -24 0
-23 663 24 0
-23 695 24 0
-23 663 695 0
24 -664 -696 0
24 -696 -25 0
24 -664 -25 0
-24 664 25 0
-24 696 25 0
-24 664 696 0
25 -665 -697 0
25 -697 -26 0
25 -665 -26 0
-25 665 26 0
-25 697 26 0
-25 665 697 0
26 -666 -698 0
26 -698 -27 0
26 -666 -27 0
-26 666 27 0
-26 698 27 0
-26 666 698 0
27 -667 -699 0
27 -699 -28 0
27 -667 -28 0
-27 667 28 0
-27 699 28 0
-27 667 699 0
28 -668 -700 0
28 -700 -29 0
28 -668 -29 0
-28 668 29 0
-28 700 29 0
-28 668 700 0
29 -669 -701 0
29 -701 -30 0
29 -669 -30 0
-29 669 30 0
-29 701 30 0
-29 669 701 0
30 -670 -702 0
30 -702 -31 0
30 -670 -31 0
-30 670 31 0
-30 702 31 0
-30 670 702 0
31 -671 -703 0
31 -703 -32 0
31 -671 -32 0
-31 671 32 0
-31 703 32 0
-31 671 703 0
32 -672 -704 0
32 -704 -33 0
32 -672 -33 0
-32 672 33 0
-32 704 33 0
-32 672 704 0
33 -673 -705 0
33 -705 -34 0
33 -673 -34 0
-33 673 34 0
-33 705 34 0
-33 673 705 0
34 -674 -706 0
34 -706 -35 0
34 -674 -35 0
-34 674 35 0
-34 706 35 0
-34 674 706 0
35 -675 -707 0
-35 675 0
-35 707 0
36 646 -678 0
36 -646 678 0
-36 -646 -678 0
-36 646 678 0
-37 650 -682 -11 -38 0
-37 -650 682 -11 -38 0
-37 650 682 11 38 0
-37 -650 -682 11 -38 0
37 -650 38 0
37 682 11 -38 0
37 -650 -682 -11 0
37 -682 38 0
37 650 11 -38 0
37 650 682 -11 0
38 649 -681 0
38 -649 681 0
-38 -649 -681 0
-38 649 681 0
-39 40 42 44 0
39 -40 0
39 -42 0
39 -44 0
-40 -9 -41 0
-40 9 41 0
40 9 -41 0
40 -9 41 0
41 648 -680 0
41 -648 680 0
-41 -648 -680 0
-41 648 680 0
-42 -13 -43 0
-42 13 43 0
42 13 -43 0
42 -13 43 0
43 652 -684 0
43 -652 684 0
-43 -652 -684 0
-43 652 684 0
-44 45 47 0
44 -45 0
44 -47 0
-45 -15 -46 0
-45 15 46 0
45 15 -46 0
45 -15 46 0
46 654 -686 0
46 -654 686 0
-46 -654 -686 0
-46 654 686 0
-47 -17 -48 0
-47 17 48 0
47 17 -48 0
47 -17 48 0
48 656 -688 0
48 -656 688 0
-48 -656 -688 0
-48 656 688 0
-49 50 57 0
49 -50 0
49 -57 0
-50 51 55 0
50 -51 0
50 -55 0
51 -52 54 0
51 52 -54 0
-51 52 54 0
-51 -52 -54 0
52 -645 -677 0
52 -677 -53 0
52 -645 -53 0
-52 645 53 0
-52 677 53 0
-52 645 677 0
53 -646 -678 0
53 -678 -7 0
53 -646 -7 0
-53 646 7 0
-53 678 7 0
-53 646 678 0
-54 -644 -676 0
-54 644 676 0
54 644 -676 0
54 -644 676 0
-55 -53 -56 0
-55 53 56 0
55 53 -56 0
55 -53 56 0
56 645 -677 0
56 -645 677 0
-56 -645 -677 0
-56 645 677 0
-57 58 60 0
57 -58 0
57 -60 0
-58 -8 -59 0
-58 8 59 0
58 8 -59 0
58 -8 59 0
59 647 -679 0
59 -647 679 0
-59 -647 -679 0
-59 647 679 0
-60 -12 -61 0
-60 12 61 0
60 12 -61 0
60 -12 61 0
61 651 -683 0
61 -651 683 0
-61 -651 -683 0
-61 651 683 0
-62 63 368 0
62 -63 0
62 -368 0
-63 64 367 0
63 -64 0
63 -367 0
-64 65 366 0
64 -65 0
64 -366 0
-65 66 362 0
65 -66 0
65 -362 0
-66 67 357 0
66 -67 0
66 -357 0
-67 68 349 0
67 -68 0
67 -349 0
-68 69 348 0
68 -69 0
68 -348 0
-69 70 347 0
69 -70 0
69 -347 0
-70 71 346 0
70 -71 0
70 -346 0
-71 72 345 0
71 -72 0
71 -345 0
-72 73 343 0
72 -73 0
72 -343 0
-73 74 338 0
73 -74 0
73 -338 0
-74 75 335 0
74 -75 0
74 -335 0
-75 76 328 0
75 -76 0
75 -328 0
-76 77 324 0
76 -77 0
76 -324 0
-77 78 320 0
77 -78 0
77 -320 0
-78 79 316 0
78 -79 0
78 -316 0
-79 80 312 0
79 -80 0
79 -312 0
-80 81 308 0
80 -81 0
80 -308 0
-81 82 304 0
81 -82 0
81 -304 0
-82 83 300 0
82 -83 0
82 -300 0
-83 84 296 0
83 -84 0
83 -296 0
-84 85 288 0
84 -85 0
84 -288 0
-85 86 280 0
85 -86 0
85 -280 0
-86 87 272 0
86 -87 0
86 -272 0
-87 88 262 0
87 -88 0
87 -262 0
-88 89 243 0
88 -89 0
88 -243 0
-89 90 218 0
89 -90 0
89 -218 0
-90 91 175 0
90 -91 0
90 -175 0
91 -92 168 170 172 0
-91 -172 0
-91 92 0
-91 -170 0
-91 -168 0
92 6 93 104 -112 0
-92 112 0
-92 -6 0
-92 -104 0
-92 -93 0
-93 94 99 0
93 -94 0
93 -99 0
-94 95 97 0
94 -95 0
94 -97 0
-95 -16 -96 0
-95 16 96 0
95 16 -96 0
95 -16 96 0
96 655 -687 0
96 -655 687 0
-96 -655 -687 0
-96 655 687 0
-97 -18 -98 0
-97 18 98 0
97 18 -98 0
97 -18 98 0
98 657 -689 0
98 -657 689 0
-98 -657 -689 0
-98 657 689 0
-99 100 102 0
99 -100 0
99 -102 0
-100 -21 -101 0
-100 21 101 0
100 21 -101 0
100 -21 101 0
101 660 -692 0
101 -660 692 0
-101 -660 -692 0
-101 660 692 0
-102 -22 -103 0
-102 22 103 0
102 22 -103 0
102 -22 103 0
103 661 -693 0
103 -661 693 0
-103 -661 -693 0
-103 661 693 0
-104 105 110 0
104 -105 0
104 -110 0
-105 106 108 0
105 -106 0
105 -108 0
-106 -23 -107 0
-106 23 107 0
106 23 -107 0
106 -23 107 0
107 662 -694 0
107 -662 694 0
-107 -662 -694 0
-107 662 694 0
-108 -26 -109 0
-108 26 109 0
108 26 -109 0
108 -26 109 0
109 665 -697 0
109 -665 697 0
-109 -665 -697 0
-109 665 697 0
-110 -20 -111 0
-110 20 111 0
110 20 -111 0
110 -20 111 0
111 659 -691 0
111 -659 691 0
-111 -659 -691 0
-111 659 691 0
112 113 118 -125 148 0
-112 -148 0
-112 -113 0
-112 -118 0
-112 125 0
-113 114 116 0
113 -114 0
113 -116 0
-114 -24 -115 0
-114 24 115 0
114 24 -115 0
114 -24 115 0
115 663 -695 0
115 -663 695 0
-115 -663 -695 0
-115 663 695 0
-116 -25 -117 0
-116 25 117 0
116 25 -117 0
116 -25 117 0
117 664 -696 0
117 -664 696 0
-117 -664 -696 0
-117 664 696 0
-118 -119 -121 123 0
-118 30 119 121 123 0
118 -119 121 0
118 119 -121 0
118 -123 0
118 -30 119 0
119 701 -120 0
119 669 -120 0
-119 120 0
-119 -669 -701 0
120 668 -700 0
120 -668 700 0
-120 -668 -700 0
-120 668 700 0
121 -122 -30 0
121 -668 -700 -122 0
121 668 700 -122 0
-121 122 0
-121 -668 700 30 0
-121 668 -700 30 0
-122 669 701 0
122 -669 0
122 -701 0
123 31 -124 0
123 -31 124 0
-123 -31 -124 0
-123 31 124 0
124 670 -702 0
124 -670 702 0
-124 -670 -702 0
-124 670 702 0
-125 126 128 142 0
-125 126 -128 130 0
125 -126 0
125 -128 -130 0
125 128 -142 0
126 32 -127 0
126 -32 127 0
-126 -32 -127 0
-126 32 127 0
127 671 -703 0
127 -671 703 0
-127 -671 -703 0
-127 671 703 0
128 33 -129 0
128 -33 129 0
-128 -33 -129 0
-128 33 129 0
129 672 -704 0
129 -672 704 0
-129 -672 -704 0
-129 672 704 0
130 131 -133 0
130 -131 -139 0
-130 -131 139 0
-130 131 133 0
131 34 -132 0
131 -34 132 0
-131 -34 -132 0
-131 34 132 0
132 673 -705 0
132 -673 705 0
-132 -673 -705 0
-132 673 705 0
133 134 -136 0
133 -134 -138 0
-133 -134 138 0
-133 134 136 0
134 35 -135 0
134 -35 135 0
-134 -35 -135 0
-134 35 135 0
135 674 -706 0
135 -674 706 0
-135 -674 -706 0
-135 674 706 0
136 -667 137 0
136 -666 -137 0
-136 667 137 0
-136 666 -137 0
137 675 -707 0
137 -675 707 0
-137 -675 -707 0
-137 675 707 0
138 -665 137 0
138 -664 -137 0
-138 665 137 0
-138 664 -137 0
139 134 -140 0
139 -134 -141 0
-139 -134 141 0
-139 134 140 0
140 -663 137 0
140 -662 -137 0
-140 663 137 0
-140 662 -137 0
141 -661 137 0
141 -660 -137 0
-141 661 137 0
-141 660 -137 0
-142 -131 145 0
-142 131 143 144 0
142 131 -143 0
142 -131 -145 0
142 131 -144 0
143 -672 -134 -137 0
143 -673 -134 137 0
-143 134 0
-143 672 -137 0
-143 673 137 0
144 -674 -707 134 0
144 -674 -675 134 0
144 -675 -707 134 0
-144 674 707 0
-144 675 707 0
-144 -134 0
-144 674 675 0
145 134 -146 0
145 -134 -147 0
-145 -134 147 0
-145 134 146 0
146 -671 137 0
146 -670 -137 0
-146 671 137 0
-146 670 -137 0
147 -669 137 0
147 -668 -137 0
-147 669 137 0
-147 668 -137 0
-148 126 149 151 0
-148 149 151 -153 0
148 -151 0
148 -149 0
148 -126 153 0
-149 -19 -150 0
-149 19 150 0
149 19 -150 0
149 -19 150 0
150 658 -690 0
150 -658 690 0
-150 -658 -690 0
-150 658 690 0
-151 667 -699 -28 -152 0
-151 -667 699 -28 -152 0
-151 667 699 28 152 0
-151 -667 -699 28 -152 0
151 -667 152 0
151 699 28 -152 0
151 -667 -699 -28 0
151 -699 152 0
151 667 28 -152 0
151 667 699 -28 0
152 666 -698 0
152 -666 698 0
-152 -666 -698 0
-152 666 698 0
153 128 -154 0
153 -128 -161 0
-153 -128 161 0
-153 128 154 0
154 131 -155 0
154 -131 -158 0
-154 -131 158 0
-154 131 155 0
155 134 -156 0
155 -134 -157 0
-155 -134 157 0
-155 134 156 0
156 -659 137 0
156 -658 -137 0
-156 659 137 0
-156 658 -137 0
157 -657 137 0
157 -656 -137 0
-157 657 137 0
-157 656 -137 0
158 134 -159 0
158 -134 -160 0
-158 -134 160 0
-158 134 159 0
159 -655 137 0
159 -654 -137 0
-159 655 137 0
-159 654 -137 0
160 -653 137 0
160 -652 -137 0
-160 653 137 0
-160 652 -137 0
161 131 -162 0
161 -131 -165 0
-161 -131 165 0
-161 131 162 0
162 134 -163 0
162 -134 -164 0
-162 -134 164 0
-162 134 163 0
163 -651 137 0
163 -650 -137 0
-163 651 137 0
-163 650 -137 0
164 -649 137 0
164 -648 -137 0
-164 649 137 0
-164 648 -137 0
165 134 -166 0
165 -134 -167 0
-165 -134 167 0
-165 134 166 0
166 -647 137 0
166 -646 -137 0
-166 647 137 0
-166 646 -137 0
167 -645 137 0
167 -644 -137 0
-167 645 137 0
-167 644 -137 0
-168 37 40 169 0
168 -37 0
168 -40 0
168 -169 0
-169 50 58 0
169 -50 0
169 -58 0
-170 171 60 0
170 -171 0
170 -60 0
-171 42 45 0
171 -42 0
171 -45 0
-172 173 47 0
172 -173 0
172 -47 0
-173 -14 -174 0
-173 14 174 0
173 14 -174 0
173 -14 174 0
174 653 -685 0
174 -653 685 0
-174 -653 -685 0
-174 653 685 0
175 176 178 179 -180 0
-175 180 0
-175 -176 0
-175 -179 0
-175 -178 0
-176 51 177 0
176 -51 0
176 -177 0
-177 40 5 0
177 -40 0
177 -5 0
-178 55 57 0
178 -55 0
178 -57 0
-179 42 172 0
179 -42 0
179 -172 0
180 110 45 181 -183 0
-180 183 0
-180 -110 0
-180 -181 0
-180 -45 0
-181 95 182 0
181 -95 0
181 -182 0
-182 97 149 0
182 -97 0
182 -149 0
183 116 -184 215 216 0
-183 -216 0
-183 -116 0
-183 -215 0
-183 184 0
184 -126 185 -201 0
184 126 185 -186 0
-184 -185 0
-184 -126 201 0
-184 126 186 0
-185 102 114 0
185 -102 0
185 -114 0
186 128 -187 0
186 -128 -194 0
-186 -128 194 0
-186 128 187 0
187 131 -188 0
187 -131 -191 0
-187 -131 191 0
-187 131 188 0
188 134 -189 0
188 -134 -190 0
-188 -134 190 0
-188 134 189 0
189 -674 137 0
189 -673 -137 0
-189 674 137 0
-189 673 -137 0
190 -672 137 0
190 -671 -137 0
-190 672 137 0
-190 671 -137 0
191 134 -192 0
191 -134 -193 0
-191 -134 193 0
-191 134 192 0
192 -670 137 0
192 -669 -137 0
-192 670 137 0
-192 669 -137 0
193 -668 137 0
193 -667 -137 0
-193 668 137 0
-193 667 -137 0
194 131 -195 0
194 -131 -198 0
-194 -131 198 0
-194 131 195 0
195 134 -196 0
195 -134 -197 0
-195 -134 197 0
-195 134 196 0
196 -666 137 0
196 -665 -137 0
-196 666 137 0
-196 665 -137 0
197 -664 137 0
197 -663 -137 0
-197 664 137 0
-197 663 -137 0
198 134 -199 0
198 -134 -200 0
-198 -134 200 0
-198 134 199 0
199 -662 137 0
199 -661 -137 0
-199 662 137 0
-199 661 -137 0
200 -660 137 0
200 -659 -137 0
-200 660 137 0
-200 659 -137 0
201 128 -202 0
201 -128 -209 0
-201 -128 209 0
-201 128 202 0
202 131 -203 0
202 -131 -206 0
-202 -131 206 0
-202 131 203 0
203 134 -204 0
203 -134 -205 0
-203 -134 205 0
-203 134 204 0
204 -658 137 0
204 -657 -137 0
-204 658 137 0
-204 657 -137 0
205 -656 137 0
205 -655 -137 0
-205 656 137 0
-205 655 -137 0
206 134 -207 0
206 -134 -208 0
-206 -134 208 0
-206 134 207 0
207 -654 137 0
207 -653 -137 0
-207 654 137 0
-207 653 -137 0
208 -652 137 0
208 -651 -137 0
-208 652 137 0
-208 651 -137 0
209 131 -210 0
209 -131 -213 0
-209 -131 213 0
-209 131 210 0
210 134 -211 0
210 -134 -212 0
-210 -134 212 0
-210 134 211 0
211 -650 137 0
211 -649 -137 0
-211 650 137 0
-211 649 -137 0
212 -648 137 0
212 -647 -137 0
-212 648 137 0
-212 647 -137 0
213 134 -214 0
213 -644 -134 137 0
-213 134 214 0
-213 -134 -137 0
-213 644 -134 0
214 -646 137 0
214 -645 -137 0
-214 646 137 0
-214 645 -137 0
-215 100 106 0
215 -100 0
215 -106 0
-216 118 217 0
216 -118 0
216 -217 0
-217 108 151 0
217 -108 0
217 -151 0
218 40 50 219 -222 0
-218 222 0
-218 -40 0
-218 -219 0
-218 -50 0
-219 99 220 0
219 -99 0
219 -220 0
-220 216 221 0
220 -216 0
220 -221 0
-221 106 113 0
221 -106 0
221 -113 0
222 171 223 224 -227 0
-222 227 0
-222 -171 0
-222 -224 0
-222 -223 0
-223 95 173 5 57 0
223 -57 0
223 -95 0
223 -5 0
223 -173 0
-224 97 225 0
224 -97 0
224 -225 0
-225 47 226 0
225 -47 0
225 -226 0
-226 110 149 0
226 -110 0
226 -149 0
227 126 -228 0
227 -126 -236 0
-227 -126 236 0
-227 126 228 0
228 128 -229 0
228 -128 -233 0
-228 -128 233 0
-228 128 229 0
229 131 -230 0
229 -131 -232 0
-229 -131 232 0
-229 131 230 0
230 134 -231 0
230 -134 -146 0
-230 -134 146 0
-230 134 231 0
231 -673 137 0
231 -672 -137 0
-231 673 137 0
-231 672 -137 0
232 -134 -136 0
232 134 -147 0
-232 134 147 0
-232 -134 136 0
233 131 -234 0
233 -131 -235 0
-233 -131 235 0
-233 131 234 0
234 134 -138 0
234 -134 -140 0
-234 -134 140 0
-234 134 138 0
235 134 -141 0
235 -134 -156 0
-235 -134 156 0
-235 134 141 0
236 128 -237 0
236 -128 -240 0
-236 -128 240 0
-236 128 237 0
237 131 -238 0
237 -131 -239 0
-237 -131 239 0
-237 131 238 0
238 134 -157 0
238 -134 -159 0
-238 -134 159 0
-238 134 157 0
239 134 -160 0
239 -134 -163 0
-239 -134 163 0
-239 134 160 0
240 131 -241 0
240 -131 -242 0
-240 -131 242 0
-240 131 241 0
241 134 -164 0
241 -134 -166 0
-241 -134 166 0
-241 134 164 0
242 -644 134 -137 0
242 -645 134 137 0
-242 -134 0
-242 644 -137 0
-242 645 137 0
243 50 223 39 -244 0
-243 244 0
-243 -50 0
-243 -39 0
-243 -223 0
244 126 -245 259 0
244 -126 -252 259 0
-244 -259 0
-244 -126 252 0
-244 126 245 0
245 128 -246 0
245 -128 -249 0
-245 -128 249 0
-245 128 246 0
246 131 -247 0
246 -131 -248 0
-246 -131 248 0
-246 131 247 0
247 134 -190 0
247 -134 -192 0
-247 -134 192 0
-247 134 190 0
248 134 -193 0
248 -134 -196 0
-248 -134 196 0
-248 134 193 0
249 131 -250 0
249 -131 -251 0
-249 -131 251 0
-249 131 250 0
250 134 -197 0
250 -134 -199 0
-250 -134 199 0
-250 134 197 0
251 134 -200 0
251 -134 -204 0
-251 -134 204 0
-251 134 200 0
252 128 -253 0
252 -128 -256 0
-252 -128 256 0
-252 128 253 0
253 131 -254 0
253 -131 -255 0
-253 -131 255 0
-253 131 254 0
254 134 -205 0
254 -134 -207 0
-254 -134 207 0
-254 134 205 0
255 134 -208 0
255 -134 -211 0
-255 -134 211 0
-255 134 208 0
256 131 -257 0
256 -131 -258 0
-256 -131 258 0
-256 131 257 0
257 134 -212 0
257 -134 -214 0
-257 -134 214 0
-257 134 212 0
258 -644 134 137 0
-258 644 0
-258 -137 0
-258 -134 0
-259 97 260 0
259 -97 0
259 -260 0
-260 220 261 0
260 -220 0
260 -261 0
-261 99 226 0
261 -99 0
261 -226 0
262 97 4 263 -265 0
-262 265 0
-262 -97 0
-262 -263 0
-262 -4 0
-263 264 260 0
263 -264 0
263 -260 0
-264 95 173 0
264 -95 0
264 -173 0
265 126 -266 0
265 -126 -269 0
-265 -126 269 0
-265 126 266 0
266 128 -267 0
266 -128 -268 0
-266 -128 268 0
-266 128 267 0
267 -131 -133 0
267 131 -145 0
-267 131 145 0
-267 -131 133 0
268 131 -139 0
268 -131 -155 0
-268 -131 155 0
-268 131 139 0
269 128 -270 0
269 -128 -271 0
-269 -128 271 0
-269 128 270 0
270 131 -158 0
270 -131 -162 0
-270 -131 162 0
-270 131 158 0
271 131 -165 0
-271 -131 0
-271 165 0
272 97 4 263 -273 0
-272 273 0
-272 -97 0
-272 -263 0
-272 -4 0
273 126 -274 0
273 -126 -277 0
-273 -126 277 0
-273 126 274 0
274 128 -275 0
274 -128 -276 0
-274 -128 276 0
-274 128 275 0
275 131 -191 0
275 -131 -195 0
-275 -131 195 0
-275 131 191 0
276 131 -198 0
276 -131 -203 0
-276 -131 203 0
-276 131 198 0
277 128 -278 0
277 -128 -279 0
-277 -128 279 0
-277 128 278 0
278 131 -206 0
278 -131 -210 0
-278 -131 210 0
-278 131 206 0
279 131 -213 0
-279 -131 0
-279 213 0
280 97 4 263 -281 0
-280 281 0
-280 -97 0
-280 -263 0
-280 -4 0
281 126 -282 0
281 -126 -285 0
-281 -126 285 0
-281 126 282 0
282 128 -283 0
282 -128 -284 0
-282 -128 284 0
-282 128 283 0
283 131 -232 0
283 -131 -234 0
-283 -131 234 0
-283 131 232 0
284 131 -235 0
284 -131 -238 0
-284 -131 238 0
-284 131 235 0
285 128 -286 0
285 -128 -287 0
-285 -128 287 0
-285 128 286 0
286 131 -239 0
286 -131 -241 0
-286 -131 241 0
-286 131 239 0
287 131 -242 0
-287 -131 0
-287 242 0
288 97 4 263 -289 0
-288 289 0
-288 -97 0
-288 -263 0
-288 -4 0
289 126 -290 0
289 -126 -293 0
-289 -126 293 0
-289 126 290 0
290 128 -291 0
290 -128 -292 0
-290 -128 292 0
-290 128 291 0
291 131 -248 0
291 -131 -250 0
-291 -131 250 0
-291 131 248 0
292 131 -251 0
292 -131 -254 0
-292 -131 254 0
-292 131 251 0
293 128 -294 0
293 -128 -295 0
-293 -128 295 0
-293 128 294 0
294 131 -255 0
294 -131 -257 0
-294 -131 257 0
-294 131 255 0
295 -644 131 134 137 0
-295 -137 0
-295 -134 0
-295 644 0
-295 -131 0
296 97 4 263 -297 0
-296 297 0
-296 -97 0
-296 -263 0
-296 -4 0
297 126 -298 0
297 -126 -299 0
-297 -126 299 0
-297 126 298 0
298 128 -130 0
298 -128 -154 0
-298 -128 154 0
-298 128 130 0
299 128 -161 0
-299 -128 0
-299 161 0
300 97 4 263 -301 0
-300 301 0
-300 -97 0
-300 -263 0
-300 -4 0
301 126 -302 0
301 -126 -303 0
-301 -126 303 0
-301 126 302 0
302 128 -194 0
302 -128 -202 0
-302 -128 202 0
-302 128 194 0
303 128 -209 0
-303 -128 0
-303 209 0
304 97 4 263 -305 0
-304 305 0
-304 -97 0
-304 -263 0
-304 -4 0
305 126 -306 0
305 -126 -307 0
-305 -126 307 0
-305 126 306 0
306 128 -233 0
306 -128 -237 0
-306 -128 237 0
-306 128 233 0
307 128 -240 0
-307 -128 0
-307 240 0
308 97 4 263 -309 0
-308 309 0
-308 -97 0
-308 -263 0
-308 -4 0
309 126 -310 0
309 -126 -311 0
-309 -126 311 0
-309 126 310 0
310 128 -249 0
310 -128 -253 0
-310 -128 253 0
-310 128 249 0
311 128 -256 0
-311 -128 0
-311 256 0
312 97 4 263 -313 0
-312 313 0
-312 -97 0
-312 -263 0
-312 -4 0
313 126 -314 0
313 -126 -315 0
-313 -126 315 0
-313 126 314 0
314 128 -268 0
314 -128 -270 0
-314 -128 270 0
-314 128 268 0
315 128 -271 0
-315 -128 0
-315 271 0
316 97 4 263 -317 0
-316 317 0
-316 -97 0
-316 -263 0
-316 -4 0
317 126 -318 0
317 -126 -319 0
-317 -126 319 0
-317 126 318 0
318 128 -276 0
318 -128 -278 0
-318 -128 278 0
-318 128 276 0
319 128 -279 0
-319 -128 0
-319 279 0
320 97 4 263 -321 0
-320 321 0
-320 -97 0
-320 -263 0
-320 -4 0
321 126 -322 0
321 -126 -323 0
-321 -126 323 0
-321 126 322 0
322 128 -284 0
322 -128 -286 0
-322 -128 286 0
-322 128 284 0
323 128 -287 0
-323 -128 0
-323 287 0
324 97 4 263 -325 0
-324 325 0
-324 -97 0
-324 -263 0
-324 -4 0
325 126 -326 0
325 -126 -327 0
-325 -126 327 0
-325 126 326 0
326 128 -292 0
326 -128 -294 0
-326 -128 294 0
-326 128 292 0
327 128 -295 0
-327 -128 0
-327 295 0
328 168 225 -329 334 0
-328 -334 0
-328 -168 0
-328 329 0
-328 -225 0
329 6 264 330 -333 0
-329 333 0
-329 -6 0
-329 -330 0
-329 -264 0
-330 331 332 0
330 -331 0
330 -332 0
-331 97 45 0
331 -97 0
331 -45 0
-332 99 126 221 0
332 -99 0
332 -126 0
332 -221 0
333 -153 216 0
-333 153 0
-333 -216 0
-334 42 60 0
334 -42 0
334 -60 0
335 171 176 178 -336 0
-335 336 0
-335 -171 0
-335 -178 0
-335 -176 0
336 264 224 332 -337 0
-336 337 0
-336 -264 0
-336 -332 0
-336 -224 0
337 -201 216 0
-337 201 0
-337 -216 0
338 339 340 -341 342 0
-338 -342 0
-338 -339 0
-338 341 0
-338 -340 0
-339 172 332 0
339 -172 0
339 -332 0
-340 226 331 0
340 -226 0
340 -331 0
341 95 42 216 -236 0
-341 236 0
-341 -95 0
-341 -216 0
-341 -42 0
-342 177 49 0
342 -177 0
342 -49 0
343 216 -252 342 344 0
-343 -344 0
-343 -216 0
-343 -342 0
-343 252 0
-344 95 179 226 330 0
344 -330 0
344 -95 0
344 -226 0
344 -179 0
345 216 -269 342 344 0
-345 -344 0
-345 -216 0
-345 -342 0
-345 269 0
346 216 -277 342 344 0
-346 -344 0
-346 -216 0
-346 -342 0
-346 277 0
347 216 -285 342 344 0
-347 -344 0
-347 -216 0
-347 -342 0
-347 285 0
348 216 -293 342 344 0
-348 -344 0
-348 -216 0
-348 -342 0
-348 293 0
349 264 350 353 -356 0
-349 356 0
-349 -264 0
-349 -353 0
-349 -350 0
-350 334 351 352 0
350 -334 0
350 -351 0
350 -352 0
-351 6 40 0
351 -6 0
351 -40 0
-352 37 169 0
352 -37 0
352 -169 0
-353 97 45 47 354 0
353 -354 0
353 -97 0
353 -47 0
353 -45 0
-354 118 126 185 355 0
354 -355 0
354 -118 0
354 -185 0
354 -126 0
-355 116 151 0
355 -116 0
355 -151 0
356 100 104 149 -299 0
-356 299 0
-356 -100 0
-356 -149 0
-356 -104 0
357 264 4 358 -361 0
-357 361 0
-357 -264 0
-357 -358 0
-357 -4 0
-358 354 359 0
358 -354 0
358 -359 0
-359 182 360 0
359 -182 0
359 -360 0
-360 100 110 0
360 -100 0
360 -110 0
361 105 -303 0
-361 -105 0
-361 303 0
362 97 4 -307 363 0
-362 -363 0
-362 -97 0
-362 307 0
-362 -4 0
-363 364 365 0
363 -364 0
363 -365 0
-364 126 220 0
364 -126 0
364 -220 0
-365 264 261 0
365 -264 0
365 -261 0
366 97 4 -311 363 0
-366 -363 0
-366 -97 0
-366 311 0
-366 -4 0
367 97 4 -315 363 0
-367 -363 0
-367 -97 0
-367 315 0
-367 -4 0
368 97 4 -319 363 0
-368 -363 0
-368 -97 0
-368 319 0
-368 -4 0
369 97 -323 363 0
-369 -97 0
-369 323 0
-369 -363 0
370 170 352 363 -371 0
-370 371 0
-370 -170 0
-370 -363 0
-370 -352 0
371 351 372 -373 0
-371 -351 0
-371 -372 0
-371 373 0
-372 97 47 0
372 -97 0
372 -47 0
373 327 -374 0
373 -327 374 0
-373 -327 -374 0
-373 327 374 0
374 128 -375 0
-374 -128 0
-374 375 0
375 -676 131 134 137 0
-375 -137 0
-375 -134 0
-375 676 0
-375 -131 0
376 64 -367 0
376 -64 367 0
-376 -64 -367 0
-376 64 367 0
377 173 350 378 -380 0
-377 380 0
-377 -173 0
-377 -378 0
-377 -350 0
-378 364 379 0
378 -364 0
378 -379 0
-379 102 110 0
379 -102 0
379 -110 0
380 100 181 44 -381 0
-380 381 0
-380 -100 0
-380 -44 0
-380 -181 0
381 128 -382 0
-381 -128 0
-381 382 0
382 131 -383 0
-382 -131 0
-382 383 0
383 134 -384 0
383 -134 -385 0
-383 -134 385 0
-383 134 384 0
384 -679 137 0
384 -678 -137 0
-384 679 137 0
-384 678 -137 0
385 -677 137 0
385 -676 -137 0
-385 677 137 0
-385 676 -137 0
-386 -387 392 0
-386 -63 -368 392 0
-386 63 368 392 0
386 -392 0
386 -63 368 387 0
386 63 -368 387 0
387 97 4 363 -388 0
-387 388 0
-387 -97 0
-387 -363 0
-387 -4 0
388 128 -389 0
-388 -128 0
-388 389 0
389 131 -390 0
-389 -131 0
-389 390 0
390 134 -391 0
390 -676 -134 137 0
-390 134 391 0
-390 -134 -137 0
-390 676 -134 0
391 -678 137 0
391 -677 -137 0
-391 678 137 0
-391 677 -137 0
-392 393 402 403 409 0
-392 393 -402 -403 409 0
392 -409 0
392 -402 403 0
392 -393 0
392 402 -403 0
393 394 -395 0
393 -394 395 0
-393 -394 -395 0
-393 394 395 0
394 65 -366 0
394 -65 366 0
-394 -65 -366 0
-394 65 366 0
395 97 350 396 -397 0
-395 397 0
-395 -97 0
-395 -396 0
-395 -350 0
-396 44 363 0
396 -44 0
396 -363 0
397 128 -398 0
-397 -128 0
-397 398 0
398 -131 -399 0
398 131 -400 0
-398 131 400 0
-398 -131 399 0
399 -676 134 137 0
-399 676 0
-399 -137 0
-399 -134 0
400 -134 -391 0
400 134 -401 0
-400 134 401 0
-400 -134 391 0
401 -680 137 0
401 -679 -137 0
-401 680 137 0
-401 679 -137 0
402 66 -362 0
402 -66 362 0
-402 -66 -362 0
-402 66 362 0
403 97 350 396 -404 0
-403 404 0
-403 -97 0
-403 -396 0
-403 -350 0
404 128 -405 0
-404 -128 0
-404 405 0
405 131 -406 0
405 -131 -408 0
-405 -131 408 0
-405 131 406 0
406 -134 -384 0
406 134 -407 0
-406 134 407 0
-406 -134 384 0
407 -681 137 0
407 -680 -137 0
-407 681 137 0
-407 680 -137 0
408 -676 134 -137 0
408 -677 134 137 0
-408 -134 0
-408 676 -137 0
-408 677 137 0
-409 410 417 418 423 0
-409 410 -417 -418 423 0
409 -423 0
409 -417 418 0
409 -410 0
409 417 -418 0
410 411 -412 0
410 -411 412 0
-410 -411 -412 0
-410 411 412 0
411 67 -357 0
411 -67 357 0
-411 -67 -357 0
-411 67 357 0
412 97 350 396 -413 0
-412 413 0
-412 -97 0
-412 -396 0
-412 -350 0
413 128 -414 0
-413 -128 0
-413 414 0
414 -131 -390 0
414 131 -415 0
-414 131 415 0
-414 -131 390 0
415 -134 -401 0
415 134 -416 0
-415 134 416 0
-415 -134 401 0
416 -682 137 0
416 -681 -137 0
-416 682 137 0
-416 681 -137 0
417 68 -349 0
417 -68 349 0
-417 -68 -349 0
-417 68 349 0
418 97 350 396 -419 0
-418 419 0
-418 -97 0
-418 -396 0
-418 -350 0
419 128 -420 0
-419 -128 0
-419 420 0
420 -131 -383 0
420 131 -421 0
-420 131 421 0
-420 -131 383 0
421 -134 -407 0
421 134 -422 0
-421 134 422 0
-421 -134 407 0
422 -683 137 0
422 -682 -137 0
-422 683 137 0
-422 682 -137 0
-423 424 425 432 443 0
-423 -424 -425 432 443 0
423 -432 0
423 424 -425 0
423 -443 0
423 -424 425 0
424 69 -348 0
424 -69 348 0
-424 -69 -348 0
-424 69 348 0
425 6 95 168 -426 0
-425 426 0
-425 -6 0
-425 -168 0
-425 -95 0
426 216 340 427 -428 0
-426 428 0
-426 -216 0
-426 -427 0
-426 -340 0
-427 334 339 0
427 -334 0
427 -339 0
428 -128 -375 0
428 128 -429 0
-428 128 429 0
-428 -128 375 0
429 -131 -400 0
429 131 -430 0
-429 131 430 0
-429 -131 400 0
430 -134 -416 0
430 134 -431 0
-430 134 431 0
-430 -134 416 0
431 -684 137 0
431 -683 -137 0
-431 684 137 0
-431 683 -137 0
432 433 -434 0
432 -433 434 0
-432 -433 -434 0
-432 433 434 0
433 70 -347 0
433 -70 347 0
-433 -70 -347 0
-433 70 347 0
434 95 340 435 -437 0
-434 437 0
-434 -95 0
-434 -435 0
-434 -340 0
-435 427 436 0
435 -427 0
435 -436 0
-436 169 177 0
436 -169 0
436 -177 0
437 216 -438 0
-437 -216 0
-437 438 0
438 128 -439 0
438 -128 -442 0
-438 -128 442 0
-438 128 439 0
439 -131 -406 0
439 131 -440 0
-439 131 440 0
-439 -131 406 0
440 -134 -422 0
440 134 -441 0
-440 134 441 0
-440 -134 422 0
441 -685 137 0
441 -684 -137 0
-441 685 137 0
-441 684 -137 0
442 131 -408 0
-442 -131 0
-442 408 0
-443 444 452 453 459 0
-443 444 -452 -453 459 0
443 -459 0
443 -452 453 0
443 -444 0
443 452 -453 0
444 445 -446 0
444 -445 446 0
-444 -445 -446 0
-444 445 446 0
445 71 -346 0
445 -71 346 0
-445 -71 -346 0
-445 71 346 0
446 95 340 435 -447 0
-446 447 0
-446 -95 0
-446 -435 0
-446 -340 0
447 216 -448 0
-447 -216 0
-447 448 0
448 -128 -389 0
448 128 -449 0
-448 128 449 0
-448 -128 389 0
449 -131 -415 0
449 131 -450 0
-449 131 450 0
-449 -131 415 0
450 -134 -431 0
450 134 -451 0
-450 134 451 0
-450 -134 431 0
451 -686 137 0
451 -685 -137 0
-451 686 137 0
-451 685 -137 0
452 72 -345 0
452 -72 345 0
-452 -72 -345 0
-452 72 345 0
453 95 340 435 -454 0
-453 454 0
-453 -95 0
-453 -435 0
-453 -340 0
454 216 -455 0
-454 -216 0
-454 455 0
455 -128 -382 0
455 128 -456 0
-455 128 456 0
-455 -128 382 0
456 -131 -421 0
456 131 -457 0
-456 131 457 0
-456 -131 421 0
457 -134 -441 0
457 134 -458 0
-457 134 458 0
-457 -134 441 0
458 -687 137 0
458 -686 -137 0
-458 687 137 0
-458 686 -137 0
-459 460 468 469 475 0
-459 460 -468 -469 475 0
459 -475 0
459 -468 469 0
459 -460 0
459 468 -469 0
460 461 -462 0
460 -461 462 0
-460 -461 -462 0
-460 461 462 0
461 73 -343 0
461 -73 343 0
-461 -73 -343 0
-461 73 343 0
462 95 340 435 -463 0
-462 463 0
-462 -95 0
-462 -435 0
-462 -340 0
463 216 -464 0
-463 -216 0
-463 464 0
464 -128 -398 0
464 128 -465 0
-464 128 465 0
-464 -128 398 0
465 -131 -430 0
465 131 -466 0
-465 131 466 0
-465 -131 430 0
466 -134 -451 0
466 134 -467 0
-466 134 467 0
-466 -134 451 0
467 -688 137 0
467 -687 -137 0
-467 688 137 0
-467 687 -137 0
468 74 -338 0
468 -74 338 0
-468 -74 -338 0
-468 74 338 0
469 95 340 435 -470 0
-469 470 0
-469 -95 0
-469 -435 0
-469 -340 0
470 216 -471 0
-470 -216 0
-470 471 0
471 -128 -405 0
471 128 -472 0
-471 128 472 0
-471 -128 405 0
472 -131 -440 0
472 131 -473 0
-472 131 473 0
-472 -131 440 0
473 -134 -458 0
473 134 -474 0
-473 134 474 0
-473 -134 458 0
474 -689 137 0
474 -688 -137 0
-474 689 137 0
-474 688 -137 0
-475 476 477 483 491 0
-475 -476 -477 483 491 0
475 -483 0
475 476 -477 0
475 -491 0
475 -476 477 0
476 75 -335 0
476 -75 335 0
-476 -75 -335 0
-476 75 335 0
477 95 340 435 -478 0
-477 478 0
-477 -95 0
-477 -435 0
-477 -340 0
478 216 -479 0
-478 -216 0
-478 479 0
479 -128 -414 0
479 128 -480 0
-479 128 480 0
-479 -128 414 0
480 -131 -450 0
480 131 -481 0
-480 131 481 0
-480 -131 450 0
481 -134 -467 0
481 134 -482 0
-481 134 482 0
-481 -134 467 0
482 -690 137 0
482 -689 -137 0
-482 690 137 0
-482 689 -137 0
483 484 -485 0
483 -484 485 0
-483 -484 -485 0
-483 484 485 0
484 76 -328 0
484 -76 328 0
-484 -76 -328 0
-484 76 328 0
485 95 340 435 -486 0
-485 486 0
-485 -95 0
-485 -435 0
-485 -340 0
486 216 -487 0
-486 -216 0
-486 487 0
487 -128 -420 0
487 128 -488 0
-487 128 488 0
-487 -128 420 0
488 -131 -457 0
488 131 -489 0
-488 131 489 0
-488 -131 457 0
489 -134 -474 0
489 134 -490 0
-489 134 490 0
-489 -134 474 0
490 -691 137 0
490 -690 -137 0
-490 691 137 0
-490 690 -137 0
-491 492 505 506 514 0
-491 492 -505 -506 514 0
491 -514 0
491 -505 506 0
491 -492 0
491 505 -506 0
492 493 -494 0
492 -493 494 0
-492 -493 -494 0
-492 493 494 0
493 77 -324 0
493 -77 324 0
-493 -77 -324 0
-493 77 324 0
494 350 379 -495 502 0
-494 -502 0
-494 -350 0
-494 495 0
-494 -379 0
495 173 496 -497 0
-495 -173 0
-495 -496 0
-495 497 0
-496 94 215 0
496 -94 0
496 -215 0
497 118 126 -498 0
497 118 -126 -374 0
-497 -118 0
-497 -126 374 0
-497 126 498 0
498 -128 -429 0
498 128 -499 0
-498 128 499 0
-498 -128 429 0
499 -131 -466 0
499 131 -500 0
-499 131 500 0
-499 -131 466 0
500 -134 -482 0
500 134 -501 0
-500 134 501 0
-500 -134 482 0
501 -692 137 0
501 -691 -137 0
-501 692 137 0
-501 691 -137 0
-502 149 44 503 0
502 -149 0
502 -44 0
502 -503 0
-503 114 504 0
503 -114 0
503 -504 0
-504 116 217 0
504 -116 0
504 -217 0
505 78 -320 0
505 -78 320 0
-505 -78 -320 0
-505 78 320 0
506 173 350 -507 512 0
-506 -512 0
-506 -173 0
-506 507 0
-506 -350 0
507 126 -508 0
507 -126 128 -442 0
-507 -126 -128 0
-507 126 508 0
-507 -126 442 0
508 -128 -439 0
508 128 -509 0
-508 128 509 0
-508 -128 439 0
509 -131 -473 0
509 131 -510 0
-509 131 510 0
-509 -131 473 0
510 -134 -490 0
510 134 -511 0
-510 134 511 0
-510 -134 490 0
511 -693 137 0
511 -692 -137 0
-511 693 137 0
-511 692 -137 0
-512 219 224 513 0
512 -219 0
512 -224 0
512 -513 0
-513 95 45 0
513 -95 0
513 -45 0
-514 515 525 526 535 0
-514 515 -525 -526 535 0
514 -535 0
514 -525 526 0
514 -515 0
514 525 -526 0
515 516 -517 0
515 -516 517 0
-515 -516 -517 0
-515 516 517 0
516 79 -316 0
516 -79 316 0
-516 -79 -316 0
-516 79 316 0
517 350 365 518 -520 0
-517 520 0
-517 -350 0
-517 -518 0
-517 -365 0
-518 97 44 519 0
518 -97 0
518 -44 0
518 -519 0
-519 106 503 0
519 -106 0
519 -503 0
520 118 126 -521 0
520 118 -126 -388 0
-520 -118 0
-520 -126 388 0
-520 126 521 0
521 -128 -449 0
521 128 -522 0
-521 128 522 0
-521 -128 449 0
522 -131 -481 0
522 131 -523 0
-522 131 523 0
-522 -131 481 0
523 -134 -501 0
523 134 -524 0
-523 134 524 0
-523 -134 501 0
524 -694 137 0
524 -693 -137 0
-524 694 137 0
-524 693 -137 0
525 80 -312 0
525 -80 312 0
-525 -80 -312 0
-525 80 312 0
526 350 527 -529 0
-526 -350 0
-526 -527 0
-526 529 0
-527 225 528 0
527 -225 0
527 -528 0
-528 45 173 0
528 -45 0
528 -173 0
529 496 504 -530 534 0
-529 -534 0
-529 -496 0
-529 -504 0
-529 530 0
-530 126 -128 456 0
-530 126 128 531 0
530 -126 0
530 -128 -456 0
530 128 -531 0
531 -131 -489 0
531 131 -532 0
-531 131 532 0
-531 -131 489 0
532 -134 -511 0
532 134 -533 0
-532 134 533 0
-532 -134 511 0
533 -695 137 0
533 -694 -137 0
-533 695 137 0
-533 694 -137 0
-534 118 126 185 0
-534 118 185 -381 0
534 -118 0
534 -185 0
534 -126 381 0
-535 536 546 547 554 0
-535 536 -546 -547 554 0
535 -554 0
535 -546 547 0
535 -536 0
535 546 -547 0
536 537 -538 0
536 -537 538 0
-536 -537 -538 0
-536 537 538 0
537 81 -308 0
537 -81 308 0
-537 -81 -308 0
-537 81 308 0
538 172 350 359 -539 0
-538 539 0
-538 -172 0
-538 -359 0
-538 -350 0
539 513 540 -541 0
-539 -513 0
-539 -540 0
-539 541 0
-540 102 519 0
540 -102 0
540 -519 0
541 118 126 -542 0
541 118 -126 -397 0
-541 -118 0
-541 -126 397 0
-541 126 542 0
542 -128 -465 0
542 128 -543 0
-542 128 543 0
-542 -128 465 0
543 -131 -500 0
543 131 -544 0
-543 131 544 0
-543 -131 500 0
544 -134 -524 0
544 134 -545 0
-544 134 545 0
-544 -134 524 0
545 -696 137 0
545 -695 -137 0
-545 696 137 0
-545 695 -137 0
546 82 -304 0
546 -82 304 0
-546 -82 -304 0
-546 82 304 0
547 350 502 548 -549 0
-547 549 0
-547 -350 0
-547 -548 0
-547 -502 0
-548 93 106 110 173 0
548 -173 0
548 -93 0
548 -110 0
548 -106 0
549 118 126 -550 0
549 118 -126 -404 0
-549 -118 0
-549 -126 404 0
-549 126 550 0
550 -128 -472 0
550 128 -551 0
-550 128 551 0
-550 -128 472 0
551 -131 -510 0
551 131 -552 0
-551 131 552 0
-551 -131 510 0
552 -134 -533 0
552 134 -553 0
-552 134 553 0
-552 -134 533 0
553 -697 137 0
553 -696 -137 0
-553 697 137 0
-553 696 -137 0
-554 555 564 565 572 0
-554 555 -564 -565 572 0
554 -572 0
554 -564 565 0
554 -555 0
554 564 -565 0
555 556 -557 0
555 -556 557 0
-555 -556 -557 0
-555 556 557 0
556 83 -300 0
556 -83 300 0
-556 -83 -300 0
-556 83 300 0
557 93 350 527 -558 0
-557 558 0
-557 -93 0
-557 -527 0
-557 -350 0
558 519 -559 0
-558 -519 0
-558 559 0
559 118 126 -560 0
559 118 -126 -413 0
-559 -118 0
-559 -126 413 0
-559 126 560 0
560 -128 -480 0
560 128 -561 0
-560 128 561 0
-560 -128 480 0
561 -131 -523 0
561 131 -562 0
-561 131 562 0
-561 -131 523 0
562 -134 -545 0
562 134 -563 0
-562 134 563 0
-562 -134 545 0
563 -698 137 0
563 -697 -137 0
-563 698 137 0
-563 697 -137 0
564 84 -296 0
564 -84 296 0
-564 -84 -296 0
-564 84 296 0
565 350 360 518 -566 0
-565 566 0
-565 -350 0
-565 -518 0
-565 -360 0
566 102 149 264 -567 0
-566 567 0
-566 -102 0
-566 -264 0
-566 -149 0
567 118 126 -568 0
567 118 -126 -419 0
-567 -118 0
-567 -126 419 0
-567 126 568 0
568 -128 -488 0
568 128 -569 0
-568 128 569 0
-568 -128 488 0
569 -131 -532 0
569 131 -570 0
-569 131 570 0
-569 -131 532 0
570 -134 -553 0
570 134 -571 0
-570 134 571 0
-570 -134 553 0
571 -699 137 0
571 -698 -137 0
-571 699 137 0
-571 698 -137 0
-572 573 574 583 592 0
-572 -573 -574 583 592 0
572 -583 0
572 573 -574 0
572 -592 0
572 -573 574 0
573 85 -288 0
573 -85 288 0
-573 -85 -288 0
-573 85 288 0
574 94 172 350 -575 0
-574 575 0
-574 -94 0
-574 -350 0
-574 -172 0
575 -576 581 0
-575 576 0
-575 -581 0
576 118 126 -577 0
576 118 -126 -428 0
-576 -118 0
-576 -126 428 0
-576 126 577 0
577 -128 -499 0
577 128 -578 0
-577 -128 499 0
-577 128 578 0
-578 131 579 0
-578 -131 544 0
578 -131 -544 0
578 131 -579 0
579 -134 -563 0
579 134 -580 0
-579 134 580 0
-579 -134 563 0
580 -700 137 0
580 -699 -137 0
-580 700 137 0
-580 699 -137 0
-581 149 45 582 0
581 -149 0
581 -45 0
581 -582 0
-582 360 540 0
582 -360 0
582 -540 0
583 584 -585 0
583 -584 585 0
-583 -584 -585 0
-583 584 585 0
584 86 -280 0
584 -86 280 0
-584 -86 -280 0
-584 86 280 0
585 6 172 -586 591 0
-585 -591 0
-585 -6 0
-585 586 0
-585 -172 0
586 118 126 -587 0
586 118 -126 -438 0
-586 -118 0
-586 -126 438 0
-586 126 587 0
587 -128 -509 0
587 128 -588 0
-587 -128 509 0
-587 128 588 0
-588 131 589 0
-588 -131 552 0
588 -131 -552 0
588 131 -589 0
589 -134 -571 0
589 134 -590 0
-589 134 590 0
-589 -134 571 0
590 -701 137 0
590 -700 -137 0
-590 701 137 0
-590 700 -137 0
-591 94 168 334 581 0
591 -581 0
591 -94 0
591 -334 0
591 -168 0
-592 593 602 603 610 0
-592 593 -602 -603 610 0
592 -610 0
592 -602 603 0
592 -593 0
592 602 -603 0
593 594 -595 0
593 -594 595 0
-593 -594 -595 0
-593 594 595 0
594 87 -272 0
594 -87 272 0
-594 -87 -272 0
-594 87 272 0
595 173 350 -596 601 0
-595 -601 0
-595 -173 0
-595 596 0
-595 -350 0
596 118 126 -597 0
596 118 -126 -448 0
-596 -118 0
-596 -126 448 0
-596 126 597 0
597 -128 -522 0
597 128 -598 0
-597 -128 522 0
-597 128 598 0
-598 131 599 0
-598 -131 562 0
598 -131 -562 0
598 131 -599 0
599 -134 -580 0
599 134 -600 0
-599 134 600 0
-599 -134 580 0
600 -702 137 0
600 -701 -137 0
-600 702 137 0
-600 701 -137 0
-601 181 44 582 0
601 -181 0
601 -44 0
601 -582 0
602 88 -262 0
602 -88 262 0
-602 -88 -262 0
-602 88 262 0
603 172 182 350 -604 0
-603 604 0
-603 -172 0
-603 -350 0
-603 -182 0
604 513 582 -605 0
-604 -513 0
-604 -582 0
-604 605 0
605 118 126 -606 0
605 118 -126 -455 0
-605 -118 0
-605 -126 455 0
-605 126 606 0
606 -128 -531 0
606 128 -607 0
-606 -128 531 0
-606 128 607 0
-607 131 608 0
-607 -131 570 0
607 -131 -570 0
607 131 -608 0
608 -134 -590 0
608 134 -609 0
-608 134 609 0
-608 -134 590 0
609 -703 137 0
609 -702 -137 0
-609 703 137 0
-609 702 -137 0
-610 611 612 621 630 0
-610 -611 -612 621 630 0
610 -621 0
610 611 -612 0
610 -630 0
610 -611 612 0
611 89 -243 0
611 -89 243 0
-611 -89 -243 0
-611 89 243 0
612 95 613 -614 619 0
-612 -619 0
-612 -95 0
-612 614 0
-612 -613 0
-613 149 372 0
613 -149 0
613 -372 0
614 118 126 -615 0
614 118 -126 -464 0
-614 -118 0
-614 -126 464 0
-614 126 615 0
615 -128 -543 0
615 128 -616 0
-615 -128 543 0
-615 128 616 0
-616 -131 579 0
-616 131 617 0
616 -131 -579 0
616 131 -617 0
-617 134 618 0
-617 -134 600 0
617 -134 -600 0
617 134 -618 0
618 -704 137 0
618 -703 -137 0
-618 704 137 0
-618 703 -137 0
-619 351 352 620 0
619 -351 0
619 -352 0
619 -620 0
-620 334 528 582 0
620 -334 0
620 -528 0
620 -582 0
621 622 -623 0
621 -622 623 0
-621 -622 -623 0
-621 622 623 0
622 90 -218 0
622 -90 218 0
-622 -90 -218 0
-622 90 218 0
623 6 173 601 -624 0
-623 624 0
-623 -6 0
-623 -601 0
-623 -173 0
624 168 334 -625 0
-624 -168 0
-624 -334 0
-624 625 0
625 118 126 -626 0
625 118 -126 -471 0
-625 -118 0
-625 -126 471 0
-625 126 626 0
626 -128 -551 0
626 128 -627 0
-626 -128 551 0
-626 128 627 0
-627 -131 589 0
-627 131 628 0
627 -131 -589 0
627 131 -628 0
-628 134 629 0
-628 -134 609 0
628 -134 -609 0
628 134 -629 0
629 -705 137 0
629 -704 -137 0
-629 705 137 0
-629 704 -137 0
-630 -91 -631 -639 0
-630 91 631 639 0
630 -631 639 0
630 91 -639 0
630 -91 631 0
631 175 -632 0
631 -175 632 0
-631 -175 -632 0
-631 175 632 0
632 95 436 620 -633 0
-632 633 0
-632 -95 0
-632 -620 0
-632 -436 0
633 613 -634 0
-633 -613 0
-633 634 0
634 118 126 -635 0
634 118 -126 -479 0
-634 -118 0
-634 -126 479 0
-634 126 635 0
635 -128 -561 0
635 128 -636 0
-635 -128 561 0
-635 128 636 0
-636 -131 599 0
-636 131 637 0
636 -131 -599 0
636 131 -637 0
-637 -134 618 0
-637 134 638 0
637 -134 -618 0
637 134 -638 0
-638 706 137 0
-638 705 -137 0
638 -706 137 0
638 -705 -137 0
639 95 613 619 -640 0
-639 640 0
-639 -95 0
-639 -619 0
-639 -613 0
640 118 126 -641 0
640 118 -126 -487 0
-640 -118 0
-640 -126 487 0
-640 126 641 0
641 -128 -569 0
641 128 -642 0
-641 -128 569 0
-641 128 642 0
-642 -131 608 0
-642 131 144 643 0
642 131 -643 0
642 -131 -608 0
642 131 -144 0
643 -704 -134 -137 0
643 -705 -134 137 0
-643 134 0
-643 704 -137 0
-643 705 137 0
-708 0
2 0

